100
128
31
22
4
49
40
7
1
19
24
26
7
47
17
49
24
64
8
47
19
50
34
32
52
8
3
36
16
26
18
14
13
32
39
16
41
53
23
18
56
20
30
38
50
29
64
38
21
58
46
38
64
25
51
16
29
23
3
7
7
44
42
24
5
26
35
18
29
26
1
36
27
24
20
41
4
20
15
15
24
50
19
40
5
22
19
18
23
33
44
25
36
59
25
41
41
63
46
32
63
6